INPUT_PARAMETERS
# Created by Atomic Simulation Enviroment
suffix              Scf
pseudo_dir          /XYFS01/nscc-gz_pinchen_1/sf_box/abacus-develop-LTSv3.10.0/PotSG15
orbital_dir         /XYFS01/nscc-gz_pinchen_1/sf_box/abacus-develop-LTSv3.10.0/OrbSG15std
calculation         scf
ntype               2
nspin               2
nbands              25
symmetry            1
ecutwfc             100
scf_thr             1e-07
scf_nmax            100
out_chg             1
ks_solver           genelpa
basis_type          lcao
smearing_method     gaussian
smearing_sigma      0.02
mixing_type         broyden
mixing_beta         0.4
gamma_only          0


