ATOMIC_SPECIES
Li  6.94          Li_ONCV_PBE-1.0.upf
O   15.999        O_ONCV_PBE-1.0.upf

NUMERICAL_ORBITAL
Li_gga_9au_60Ry_4s1p.orb
O_gga_7au_60Ry_2s2p1d.orb

LATTICE_CONSTANT
1.0

LATTICE_VECTORS
3.0889500000   0.0000000000   0.0000000000   
-0.000000000   3.0889500000   0.0000000000   
0.0000000000   0.0000000000   3.0889500000   

ATOMIC_POSITIONS
Direct

Li
1.0000000000
1
0.0000000000   0.0000000000   0.0000000000   1   1   1   
O
1.0000000000
3
0.5000000000   0.5000000000   0.0000000000   1   1   1   
0.5000000000   0.0000000000   0.5000000000   1   1   1   
0.0000000000   0.5000000000   0.5000000000   1   1   1   
