INPUT_PARAMETERS
# Created by Atomic Simulation Enviroment
suffix              Band
kpoint_file         KLINES
pseudo_dir          /XYFS01/nscc-gz_pinchen_1/sf_box/abacus-develop-LTSv3.10.0/PotSG15
orbital_dir         /XYFS01/nscc-gz_pinchen_1/sf_box/abacus-develop-LTSv3.10.0/OrbSG15std
calculation         nscf
ntype               2
nspin               2
nbands              25
symmetry            0
ecutwfc             100
scf_thr             1e-07
init_chg            1
out_band            1
ks_solver           genelpa
basis_type          lcao
gamma_only          0


